
Gurobi 6.5.2 (win64) logging started 07/22/16 21:11:18


Gurobi 6.5.2 (win64) logging started 07/22/16 21:11:18

Optimize a model with 1929 rows, 582 columns and 4998 nonzeros
Coefficient statistics:
  Matrix range    [6e-08, 1e+03]
  Objective range [1e+00, 1e+00]
  Bounds range    [1e+00, 1e+00]
  RHS range       [6e-06, 1e+03]
Presolve removed 1723 rows and 369 columns
Presolve time: 0.02s
Presolved: 206 rows, 213 columns, 893 nonzeros
Variable types: 213 continuous, 0 integer (0 binary)

Root relaxation: objective 1.550187e+02, 203 iterations, 0.00 seconds

    Nodes    |    Current Node    |     Objective Bounds      |     Work
 Expl Unexpl |  Obj  Depth IntInf | Incumbent    BestBd   Gap | It/Node Time

*    0     0               0     155.0187496  155.01875  0.00%     -    0s

Explored 0 nodes (203 simplex iterations) in 0.02 seconds
Thread count was 8 (of 8 available processors)

Optimal solution found (tolerance 1.00e-04)
Best objective 1.550187495669e+02, best bound 1.550187495669e+02, gap 0.0%

Wrote requested result file 'H1\instance6\\Results6EC_Sol2.lp'

